p cnf 216 1323
-1 -2 0
-1 -3 0
-1 -4 0
-1 -5 0
-1 -6 0
-2 -3 0
-2 -4 0
-2 -5 0
-2 -6 0
-3 -4 0
-3 -5 0
-3 -6 0
-4 -5 0
-4 -6 0
-5 -6 0
-1 37 0
-1 7 0
-2 38 0
-2 8 0
-3 39 0
-3 9 0
-4 40 0
-4 10 0
-5 41 0
-5 11 0
-6 42 0
-6 12 0
-7 -8 0
-7 -9 0
-7 -10 0
-7 -11 0
-7 -12 0
-8 -9 0
-8 -10 0
-8 -11 0
-8 -12 0
-9 -10 0
-9 -11 0
-9 -12 0
-10 -11 0
-10 -12 0
-11 -12 0
-7 43 1 0
-7 43 13 0
-7 1 13 0
-8 44 2 0
-8 44 14 0
-8 2 14 0
-9 45 3 0
-9 45 15 0
-9 3 15 0
-10 46 4 0
-10 46 16 0
-10 4 16 0
-11 47 5 0
-11 47 17 0
-11 5 17 0
-12 48 6 0
-12 48 18 0
-12 6 18 0
-7 -43 -1 -13 0
-8 -44 -2 -14 0
-9 -45 -3 -15 0
-10 -46 -4 -16 0
-11 -47 -5 -17 0
-12 -48 -6 -18 0
-13 -14 0
-13 -15 0
-13 -16 0
-13 -17 0
-13 -18 0
-14 -15 0
-14 -16 0
-14 -17 0
-14 -18 0
-15 -16 0
-15 -17 0
-15 -18 0
-16 -17 0
-16 -18 0
-17 -18 0
-13 49 7 0
-13 49 19 0
-13 7 19 0
-14 50 8 0
-14 50 20 0
-14 8 20 0
-15 51 9 0
-15 51 21 0
-15 9 21 0
-16 52 10 0
-16 52 22 0
-16 10 22 0
-17 53 11 0
-17 53 23 0
-17 11 23 0
-18 54 12 0
-18 54 24 0
-18 12 24 0
-13 -49 -7 -19 0
-14 -50 -8 -20 0
-15 -51 -9 -21 0
-16 -52 -10 -22 0
-17 -53 -11 -23 0
-18 -54 -12 -24 0
-19 -20 0
-19 -21 0
-19 -22 0
-19 -23 0
-19 -24 0
-20 -21 0
-20 -22 0
-20 -23 0
-20 -24 0
-21 -22 0
-21 -23 0
-21 -24 0
-22 -23 0
-22 -24 0
-23 -24 0
-19 55 13 0
-19 55 25 0
-19 13 25 0
-20 56 14 0
-20 56 26 0
-20 14 26 0
-21 57 15 0
-21 57 27 0
-21 15 27 0
-22 58 16 0
-22 58 28 0
-22 16 28 0
-23 59 17 0
-23 59 29 0
-23 17 29 0
-24 60 18 0
-24 60 30 0
-24 18 30 0
-19 -55 -13 -25 0
-20 -56 -14 -26 0
-21 -57 -15 -27 0
-22 -58 -16 -28 0
-23 -59 -17 -29 0
-24 -60 -18 -30 0
27 0
-25 0
-26 0
-28 0
-29 0
-30 0
63 21 33 0
-63 -21 0
-63 -33 0
-21 -33 0
-31 -32 0
-31 -33 0
-31 -34 0
-31 -35 0
-31 -36 0
-32 -33 0
-32 -34 0
-32 -35 0
-32 -36 0
-33 -34 0
-33 -35 0
-33 -36 0
-34 -35 0
-34 -36 0
-35 -36 0
-31 67 0
-31 25 0
-32 68 0
-32 26 0
-33 69 0
-33 27 0
-34 70 0
-34 28 0
-35 71 0
-35 29 0
-36 72 0
-36 30 0
38 0
-37 0
-39 0
-40 0
-41 0
-42 0
74 2 44 0
-74 -2 0
-74 -44 0
-2 -44 0
48 0
-43 0
-44 0
-45 0
-46 0
-47 0
84 12 54 42 0
-84 -12 0
-84 -54 0
-84 -42 0
-12 -54 0
-12 -42 0
-54 -42 0
-49 -50 0
-49 -51 0
-49 -52 0
-49 -53 0
-49 -54 0
-50 -51 0
-50 -52 0
-50 -53 0
-50 -54 0
-51 -52 0
-51 -53 0
-51 -54 0
-52 -53 0
-52 -54 0
-53 -54 0
-49 85 13 55 0
-49 85 13 43 0
-49 85 55 43 0
-49 13 55 43 0
-50 86 14 56 0
-50 86 14 44 0
-50 86 56 44 0
-50 14 56 44 0
-51 87 15 57 0
-51 87 15 45 0
-51 87 57 45 0
-51 15 57 45 0
-52 88 16 58 0
-52 88 16 46 0
-52 88 58 46 0
-52 16 58 46 0
-53 89 17 59 0
-53 89 17 47 0
-53 89 59 47 0
-53 17 59 47 0
-54 90 18 60 0
-54 90 18 48 0
-54 90 60 48 0
-54 18 60 48 0
-49 -85 -13 -55 0
-49 -85 -13 -43 0
-49 -85 -55 -43 0
-49 -13 -55 -43 0
-50 -86 -14 -56 0
-50 -86 -14 -44 0
-50 -86 -56 -44 0
-50 -14 -56 -44 0
-51 -87 -15 -57 0
-51 -87 -15 -45 0
-51 -87 -57 -45 0
-51 -15 -57 -45 0
-52 -88 -16 -58 0
-52 -88 -16 -46 0
-52 -88 -58 -46 0
-52 -16 -58 -46 0
-53 -89 -17 -59 0
-53 -89 -17 -47 0
-53 -89 -59 -47 0
-53 -17 -59 -47 0
-54 -90 -18 -60 0
-54 -90 -18 -48 0
-54 -90 -60 -48 0
-54 -18 -60 -48 0
-55 -56 0
-55 -57 0
-55 -58 0
-55 -59 0
-55 -60 0
-56 -57 0
-56 -58 0
-56 -59 0
-56 -60 0
-57 -58 0
-57 -59 0
-57 -60 0
-58 -59 0
-58 -60 0
-59 -60 0
-55 91 19 61 0
-55 91 19 49 0
-55 91 61 49 0
-55 19 61 49 0
-56 92 20 62 0
-56 92 20 50 0
-56 92 62 50 0
-56 20 62 50 0
-57 93 21 63 0
-57 93 21 51 0
-57 93 63 51 0
-57 21 63 51 0
-58 94 22 64 0
-58 94 22 52 0
-58 94 64 52 0
-58 22 64 52 0
-59 95 23 65 0
-59 95 23 53 0
-59 95 65 53 0
-59 23 65 53 0
-60 96 24 66 0
-60 96 24 54 0
-60 96 66 54 0
-60 24 66 54 0
-55 -91 -19 -61 0
-55 -91 -19 -49 0
-55 -91 -61 -49 0
-55 -19 -61 -49 0
-56 -92 -20 -62 0
-56 -92 -20 -50 0
-56 -92 -62 -50 0
-56 -20 -62 -50 0
-57 -93 -21 -63 0
-57 -93 -21 -51 0
-57 -93 -63 -51 0
-57 -21 -63 -51 0
-58 -94 -22 -64 0
-58 -94 -22 -52 0
-58 -94 -64 -52 0
-58 -22 -64 -52 0
-59 -95 -23 -65 0
-59 -95 -23 -53 0
-59 -95 -65 -53 0
-59 -23 -65 -53 0
-60 -96 -24 -66 0
-60 -96 -24 -54 0
-60 -96 -66 -54 0
-60 -24 -66 -54 0
62 0
-61 0
-63 0
-64 0
-65 0
-66 0
98 26 68 56 0
-98 -26 0
-98 -68 0
-98 -56 0
-26 -68 0
-26 -56 0
-68 -56 0
69 0
-67 0
-68 0
-70 0
-71 0
-72 0
105 33 63 0
-105 -33 0
-105 -63 0
-33 -63 0
77 0
-73 0
-74 0
-75 0
-76 0
-78 0
113 41 83 0
-113 -41 0
-113 -83 0
-41 -83 0
-79 -80 0
-79 -81 0
-79 -82 0
-79 -83 0
-79 -84 0
-80 -81 0
-80 -82 0
-80 -83 0
-80 -84 0
-81 -82 0
-81 -83 0
-81 -84 0
-82 -83 0
-82 -84 0
-83 -84 0
-79 115 43 85 0
-79 115 43 73 0
-79 115 85 73 0
-79 43 85 73 0
-80 116 44 86 0
-80 116 44 74 0
-80 116 86 74 0
-80 44 86 74 0
-81 117 45 87 0
-81 117 45 75 0
-81 117 87 75 0
-81 45 87 75 0
-82 118 46 88 0
-82 118 46 76 0
-82 118 88 76 0
-82 46 88 76 0
-83 119 47 89 0
-83 119 47 77 0
-83 119 89 77 0
-83 47 89 77 0
-84 120 48 90 0
-84 120 48 78 0
-84 120 90 78 0
-84 48 90 78 0
-79 -115 -43 -85 0
-79 -115 -43 -73 0
-79 -115 -85 -73 0
-79 -43 -85 -73 0
-80 -116 -44 -86 0
-80 -116 -44 -74 0
-80 -116 -86 -74 0
-80 -44 -86 -74 0
-81 -117 -45 -87 0
-81 -117 -45 -75 0
-81 -117 -87 -75 0
-81 -45 -87 -75 0
-82 -118 -46 -88 0
-82 -118 -46 -76 0
-82 -118 -88 -76 0
-82 -46 -88 -76 0
-83 -119 -47 -89 0
-83 -119 -47 -77 0
-83 -119 -89 -77 0
-83 -47 -89 -77 0
-84 -120 -48 -90 0
-84 -120 -48 -78 0
-84 -120 -90 -78 0
-84 -48 -90 -78 0
-85 -86 0
-85 -87 0
-85 -88 0
-85 -89 0
-85 -90 0
-86 -87 0
-86 -88 0
-86 -89 0
-86 -90 0
-87 -88 0
-87 -89 0
-87 -90 0
-88 -89 0
-88 -90 0
-89 -90 0
-85 121 49 91 0
-85 121 49 79 0
-85 121 91 79 0
-85 49 91 79 0
-86 122 50 92 0
-86 122 50 80 0
-86 122 92 80 0
-86 50 92 80 0
-87 123 51 93 0
-87 123 51 81 0
-87 123 93 81 0
-87 51 93 81 0
-88 124 52 94 0
-88 124 52 82 0
-88 124 94 82 0
-88 52 94 82 0
-89 125 53 95 0
-89 125 53 83 0
-89 125 95 83 0
-89 53 95 83 0
-90 126 54 96 0
-90 126 54 84 0
-90 126 96 84 0
-90 54 96 84 0
-85 -121 -49 -91 0
-85 -121 -49 -79 0
-85 -121 -91 -79 0
-85 -49 -91 -79 0
-86 -122 -50 -92 0
-86 -122 -50 -80 0
-86 -122 -92 -80 0
-86 -50 -92 -80 0
-87 -123 -51 -93 0
-87 -123 -51 -81 0
-87 -123 -93 -81 0
-87 -51 -93 -81 0
-88 -124 -52 -94 0
-88 -124 -52 -82 0
-88 -124 -94 -82 0
-88 -52 -94 -82 0
-89 -125 -53 -95 0
-89 -125 -53 -83 0
-89 -125 -95 -83 0
-89 -53 -95 -83 0
-90 -126 -54 -96 0
-90 -126 -54 -84 0
-90 -126 -96 -84 0
-90 -54 -96 -84 0
-91 -92 0
-91 -93 0
-91 -94 0
-91 -95 0
-91 -96 0
-92 -93 0
-92 -94 0
-92 -95 0
-92 -96 0
-93 -94 0
-93 -95 0
-93 -96 0
-94 -95 0
-94 -96 0
-95 -96 0
-91 127 55 97 0
-91 127 55 85 0
-91 127 97 85 0
-91 55 97 85 0
-92 128 56 98 0
-92 128 56 86 0
-92 128 98 86 0
-92 56 98 86 0
-93 129 57 99 0
-93 129 57 87 0
-93 129 99 87 0
-93 57 99 87 0
-94 130 58 100 0
-94 130 58 88 0
-94 130 100 88 0
-94 58 100 88 0
-95 131 59 101 0
-95 131 59 89 0
-95 131 101 89 0
-95 59 101 89 0
-96 132 60 102 0
-96 132 60 90 0
-96 132 102 90 0
-96 60 102 90 0
-91 -127 -55 -97 0
-91 -127 -55 -85 0
-91 -127 -97 -85 0
-91 -55 -97 -85 0
-92 -128 -56 -98 0
-92 -128 -56 -86 0
-92 -128 -98 -86 0
-92 -56 -98 -86 0
-93 -129 -57 -99 0
-93 -129 -57 -87 0
-93 -129 -99 -87 0
-93 -57 -99 -87 0
-94 -130 -58 -100 0
-94 -130 -58 -88 0
-94 -130 -100 -88 0
-94 -58 -100 -88 0
-95 -131 -59 -101 0
-95 -131 -59 -89 0
-95 -131 -101 -89 0
-95 -59 -101 -89 0
-96 -132 -60 -102 0
-96 -132 -60 -90 0
-96 -132 -102 -90 0
-96 -60 -102 -90 0
-97 -98 0
-97 -99 0
-97 -100 0
-97 -101 0
-97 -102 0
-98 -99 0
-98 -100 0
-98 -101 0
-98 -102 0
-99 -100 0
-99 -101 0
-99 -102 0
-100 -101 0
-100 -102 0
-101 -102 0
-97 133 61 103 0
-97 133 61 91 0
-97 133 103 91 0
-97 61 103 91 0
-98 134 62 104 0
-98 134 62 92 0
-98 134 104 92 0
-98 62 104 92 0
-99 135 63 105 0
-99 135 63 93 0
-99 135 105 93 0
-99 63 105 93 0
-100 136 64 106 0
-100 136 64 94 0
-100 136 106 94 0
-100 64 106 94 0
-101 137 65 107 0
-101 137 65 95 0
-101 137 107 95 0
-101 65 107 95 0
-102 138 66 108 0
-102 138 66 96 0
-102 138 108 96 0
-102 66 108 96 0
-97 -133 -61 -103 0
-97 -133 -61 -91 0
-97 -133 -103 -91 0
-97 -61 -103 -91 0
-98 -134 -62 -104 0
-98 -134 -62 -92 0
-98 -134 -104 -92 0
-98 -62 -104 -92 0
-99 -135 -63 -105 0
-99 -135 -63 -93 0
-99 -135 -105 -93 0
-99 -63 -105 -93 0
-100 -136 -64 -106 0
-100 -136 -64 -94 0
-100 -136 -106 -94 0
-100 -64 -106 -94 0
-101 -137 -65 -107 0
-101 -137 -65 -95 0
-101 -137 -107 -95 0
-101 -65 -107 -95 0
-102 -138 -66 -108 0
-102 -138 -66 -96 0
-102 -138 -108 -96 0
-102 -66 -108 -96 0
108 0
-103 0
-104 0
-105 0
-106 0
-107 0
144 72 102 0
-144 -72 0
-144 -102 0
-72 -102 0
112 0
-109 0
-110 0
-111 0
-113 0
-114 0
148 76 118 0
-148 -76 0
-148 -118 0
-76 -118 0
-115 -116 0
-115 -117 0
-115 -118 0
-115 -119 0
-115 -120 0
-116 -117 0
-116 -118 0
-116 -119 0
-116 -120 0
-117 -118 0
-117 -119 0
-117 -120 0
-118 -119 0
-118 -120 0
-119 -120 0
-115 151 79 121 0
-115 151 79 109 0
-115 151 121 109 0
-115 79 121 109 0
-116 152 80 122 0
-116 152 80 110 0
-116 152 122 110 0
-116 80 122 110 0
-117 153 81 123 0
-117 153 81 111 0
-117 153 123 111 0
-117 81 123 111 0
-118 154 82 124 0
-118 154 82 112 0
-118 154 124 112 0
-118 82 124 112 0
-119 155 83 125 0
-119 155 83 113 0
-119 155 125 113 0
-119 83 125 113 0
-120 156 84 126 0
-120 156 84 114 0
-120 156 126 114 0
-120 84 126 114 0
-115 -151 -79 -121 0
-115 -151 -79 -109 0
-115 -151 -121 -109 0
-115 -79 -121 -109 0
-116 -152 -80 -122 0
-116 -152 -80 -110 0
-116 -152 -122 -110 0
-116 -80 -122 -110 0
-117 -153 -81 -123 0
-117 -153 -81 -111 0
-117 -153 -123 -111 0
-117 -81 -123 -111 0
-118 -154 -82 -124 0
-118 -154 -82 -112 0
-118 -154 -124 -112 0
-118 -82 -124 -112 0
-119 -155 -83 -125 0
-119 -155 -83 -113 0
-119 -155 -125 -113 0
-119 -83 -125 -113 0
-120 -156 -84 -126 0
-120 -156 -84 -114 0
-120 -156 -126 -114 0
-120 -84 -126 -114 0
-121 -122 0
-121 -123 0
-121 -124 0
-121 -125 0
-121 -126 0
-122 -123 0
-122 -124 0
-122 -125 0
-122 -126 0
-123 -124 0
-123 -125 0
-123 -126 0
-124 -125 0
-124 -126 0
-125 -126 0
-121 157 85 127 0
-121 157 85 115 0
-121 157 127 115 0
-121 85 127 115 0
-122 158 86 128 0
-122 158 86 116 0
-122 158 128 116 0
-122 86 128 116 0
-123 159 87 129 0
-123 159 87 117 0
-123 159 129 117 0
-123 87 129 117 0
-124 160 88 130 0
-124 160 88 118 0
-124 160 130 118 0
-124 88 130 118 0
-125 161 89 131 0
-125 161 89 119 0
-125 161 131 119 0
-125 89 131 119 0
-126 162 90 132 0
-126 162 90 120 0
-126 162 132 120 0
-126 90 132 120 0
-121 -157 -85 -127 0
-121 -157 -85 -115 0
-121 -157 -127 -115 0
-121 -85 -127 -115 0
-122 -158 -86 -128 0
-122 -158 -86 -116 0
-122 -158 -128 -116 0
-122 -86 -128 -116 0
-123 -159 -87 -129 0
-123 -159 -87 -117 0
-123 -159 -129 -117 0
-123 -87 -129 -117 0
-124 -160 -88 -130 0
-124 -160 -88 -118 0
-124 -160 -130 -118 0
-124 -88 -130 -118 0
-125 -161 -89 -131 0
-125 -161 -89 -119 0
-125 -161 -131 -119 0
-125 -89 -131 -119 0
-126 -162 -90 -132 0
-126 -162 -90 -120 0
-126 -162 -132 -120 0
-126 -90 -132 -120 0
131 0
-127 0
-128 0
-129 0
-130 0
-132 0
167 95 137 125 0
-167 -95 0
-167 -137 0
-167 -125 0
-95 -137 0
-95 -125 0
-137 -125 0
-133 -134 0
-133 -135 0
-133 -136 0
-133 -137 0
-133 -138 0
-134 -135 0
-134 -136 0
-134 -137 0
-134 -138 0
-135 -136 0
-135 -137 0
-135 -138 0
-136 -137 0
-136 -138 0
-137 -138 0
-133 169 97 139 0
-133 169 97 127 0
-133 169 139 127 0
-133 97 139 127 0
-134 170 98 140 0
-134 170 98 128 0
-134 170 140 128 0
-134 98 140 128 0
-135 171 99 141 0
-135 171 99 129 0
-135 171 141 129 0
-135 99 141 129 0
-136 172 100 142 0
-136 172 100 130 0
-136 172 142 130 0
-136 100 142 130 0
-137 173 101 143 0
-137 173 101 131 0
-137 173 143 131 0
-137 101 143 131 0
-138 174 102 144 0
-138 174 102 132 0
-138 174 144 132 0
-138 102 144 132 0
-133 -169 -97 -139 0
-133 -169 -97 -127 0
-133 -169 -139 -127 0
-133 -97 -139 -127 0
-134 -170 -98 -140 0
-134 -170 -98 -128 0
-134 -170 -140 -128 0
-134 -98 -140 -128 0
-135 -171 -99 -141 0
-135 -171 -99 -129 0
-135 -171 -141 -129 0
-135 -99 -141 -129 0
-136 -172 -100 -142 0
-136 -172 -100 -130 0
-136 -172 -142 -130 0
-136 -100 -142 -130 0
-137 -173 -101 -143 0
-137 -173 -101 -131 0
-137 -173 -143 -131 0
-137 -101 -143 -131 0
-138 -174 -102 -144 0
-138 -174 -102 -132 0
-138 -174 -144 -132 0
-138 -102 -144 -132 0
139 0
-140 0
-141 0
-142 0
-143 0
-144 0
175 103 133 0
-175 -103 0
-175 -133 0
-103 -133 0
-145 -146 0
-145 -147 0
-145 -148 0
-145 -149 0
-145 -150 0
-146 -147 0
-146 -148 0
-146 -149 0
-146 -150 0
-147 -148 0
-147 -149 0
-147 -150 0
-148 -149 0
-148 -150 0
-149 -150 0
-145 181 109 0
-145 181 151 0
-145 109 151 0
-146 182 110 0
-146 182 152 0
-146 110 152 0
-147 183 111 0
-147 183 153 0
-147 111 153 0
-148 184 112 0
-148 184 154 0
-148 112 154 0
-149 185 113 0
-149 185 155 0
-149 113 155 0
-150 186 114 0
-150 186 156 0
-150 114 156 0
-145 -181 -109 -151 0
-146 -182 -110 -152 0
-147 -183 -111 -153 0
-148 -184 -112 -154 0
-149 -185 -113 -155 0
-150 -186 -114 -156 0
151 0
-152 0
-153 0
-154 0
-155 0
-156 0
187 115 157 145 0
-187 -115 0
-187 -157 0
-187 -145 0
-115 -157 0
-115 -145 0
-157 -145 0
-157 -158 0
-157 -159 0
-157 -160 0
-157 -161 0
-157 -162 0
-158 -159 0
-158 -160 0
-158 -161 0
-158 -162 0
-159 -160 0
-159 -161 0
-159 -162 0
-160 -161 0
-160 -162 0
-161 -162 0
-157 193 121 163 0
-157 193 121 151 0
-157 193 163 151 0
-157 121 163 151 0
-158 194 122 164 0
-158 194 122 152 0
-158 194 164 152 0
-158 122 164 152 0
-159 195 123 165 0
-159 195 123 153 0
-159 195 165 153 0
-159 123 165 153 0
-160 196 124 166 0
-160 196 124 154 0
-160 196 166 154 0
-160 124 166 154 0
-161 197 125 167 0
-161 197 125 155 0
-161 197 167 155 0
-161 125 167 155 0
-162 198 126 168 0
-162 198 126 156 0
-162 198 168 156 0
-162 126 168 156 0
-157 -193 -121 -163 0
-157 -193 -121 -151 0
-157 -193 -163 -151 0
-157 -121 -163 -151 0
-158 -194 -122 -164 0
-158 -194 -122 -152 0
-158 -194 -164 -152 0
-158 -122 -164 -152 0
-159 -195 -123 -165 0
-159 -195 -123 -153 0
-159 -195 -165 -153 0
-159 -123 -165 -153 0
-160 -196 -124 -166 0
-160 -196 -124 -154 0
-160 -196 -166 -154 0
-160 -124 -166 -154 0
-161 -197 -125 -167 0
-161 -197 -125 -155 0
-161 -197 -167 -155 0
-161 -125 -167 -155 0
-162 -198 -126 -168 0
-162 -198 -126 -156 0
-162 -198 -168 -156 0
-162 -126 -168 -156 0
-163 -164 0
-163 -165 0
-163 -166 0
-163 -167 0
-163 -168 0
-164 -165 0
-164 -166 0
-164 -167 0
-164 -168 0
-165 -166 0
-165 -167 0
-165 -168 0
-166 -167 0
-166 -168 0
-167 -168 0
-163 199 127 169 0
-163 199 127 157 0
-163 199 169 157 0
-163 127 169 157 0
-164 200 128 170 0
-164 200 128 158 0
-164 200 170 158 0
-164 128 170 158 0
-165 201 129 171 0
-165 201 129 159 0
-165 201 171 159 0
-165 129 171 159 0
-166 202 130 172 0
-166 202 130 160 0
-166 202 172 160 0
-166 130 172 160 0
-167 203 131 173 0
-167 203 131 161 0
-167 203 173 161 0
-167 131 173 161 0
-168 204 132 174 0
-168 204 132 162 0
-168 204 174 162 0
-168 132 174 162 0
-163 -199 -127 -169 0
-163 -199 -127 -157 0
-163 -199 -169 -157 0
-163 -127 -169 -157 0
-164 -200 -128 -170 0
-164 -200 -128 -158 0
-164 -200 -170 -158 0
-164 -128 -170 -158 0
-165 -201 -129 -171 0
-165 -201 -129 -159 0
-165 -201 -171 -159 0
-165 -129 -171 -159 0
-166 -202 -130 -172 0
-166 -202 -130 -160 0
-166 -202 -172 -160 0
-166 -130 -172 -160 0
-167 -203 -131 -173 0
-167 -203 -131 -161 0
-167 -203 -173 -161 0
-167 -131 -173 -161 0
-168 -204 -132 -174 0
-168 -204 -132 -162 0
-168 -204 -174 -162 0
-168 -132 -174 -162 0
-169 -170 0
-169 -171 0
-169 -172 0
-169 -173 0
-169 -174 0
-170 -171 0
-170 -172 0
-170 -173 0
-170 -174 0
-171 -172 0
-171 -173 0
-171 -174 0
-172 -173 0
-172 -174 0
-173 -174 0
-169 205 133 175 0
-169 205 133 163 0
-169 205 175 163 0
-169 133 175 163 0
-170 206 134 176 0
-170 206 134 164 0
-170 206 176 164 0
-170 134 176 164 0
-171 207 135 177 0
-171 207 135 165 0
-171 207 177 165 0
-171 135 177 165 0
-172 208 136 178 0
-172 208 136 166 0
-172 208 178 166 0
-172 136 178 166 0
-173 209 137 179 0
-173 209 137 167 0
-173 209 179 167 0
-173 137 179 167 0
-174 210 138 180 0
-174 210 138 168 0
-174 210 180 168 0
-174 138 180 168 0
-169 -205 -133 -175 0
-169 -205 -133 -163 0
-169 -205 -175 -163 0
-169 -133 -175 -163 0
-170 -206 -134 -176 0
-170 -206 -134 -164 0
-170 -206 -176 -164 0
-170 -134 -176 -164 0
-171 -207 -135 -177 0
-171 -207 -135 -165 0
-171 -207 -177 -165 0
-171 -135 -177 -165 0
-172 -208 -136 -178 0
-172 -208 -136 -166 0
-172 -208 -178 -166 0
-172 -136 -178 -166 0
-173 -209 -137 -179 0
-173 -209 -137 -167 0
-173 -209 -179 -167 0
-173 -137 -179 -167 0
-174 -210 -138 -180 0
-174 -210 -138 -168 0
-174 -210 -180 -168 0
-174 -138 -180 -168 0
178 0
-175 0
-176 0
-177 0
-179 0
-180 0
214 142 172 0
-214 -142 0
-214 -172 0
-142 -172 0
-181 -182 0
-181 -183 0
-181 -184 0
-181 -185 0
-181 -186 0
-182 -183 0
-182 -184 0
-182 -185 0
-182 -186 0
-183 -184 0
-183 -185 0
-183 -186 0
-184 -185 0
-184 -186 0
-185 -186 0
-181 145 0
-181 187 0
-182 146 0
-182 188 0
-183 147 0
-183 189 0
-184 148 0
-184 190 0
-185 149 0
-185 191 0
-186 150 0
-186 192 0
-187 -188 0
-187 -189 0
-187 -190 0
-187 -191 0
-187 -192 0
-188 -189 0
-188 -190 0
-188 -191 0
-188 -192 0
-189 -190 0
-189 -191 0
-189 -192 0
-190 -191 0
-190 -192 0
-191 -192 0
-187 181 151 0
-187 151 193 0
-187 181 193 0
-188 182 152 0
-188 152 194 0
-188 182 194 0
-189 183 153 0
-189 153 195 0
-189 183 195 0
-190 184 154 0
-190 154 196 0
-190 184 196 0
-191 185 155 0
-191 155 197 0
-191 185 197 0
-192 186 156 0
-192 156 198 0
-192 186 198 0
-187 -151 -181 -193 0
-188 -152 -182 -194 0
-189 -153 -183 -195 0
-190 -154 -184 -196 0
-191 -155 -185 -197 0
-192 -156 -186 -198 0
-193 -194 0
-193 -195 0
-193 -196 0
-193 -197 0
-193 -198 0
-194 -195 0
-194 -196 0
-194 -197 0
-194 -198 0
-195 -196 0
-195 -197 0
-195 -198 0
-196 -197 0
-196 -198 0
-197 -198 0
-193 187 157 0
-193 157 199 0
-193 187 199 0
-194 188 158 0
-194 158 200 0
-194 188 200 0
-195 189 159 0
-195 159 201 0
-195 189 201 0
-196 190 160 0
-196 160 202 0
-196 190 202 0
-197 191 161 0
-197 161 203 0
-197 191 203 0
-198 192 162 0
-198 162 204 0
-198 192 204 0
-193 -157 -187 -199 0
-194 -158 -188 -200 0
-195 -159 -189 -201 0
-196 -160 -190 -202 0
-197 -161 -191 -203 0
-198 -162 -192 -204 0
-199 -200 0
-199 -201 0
-199 -202 0
-199 -203 0
-199 -204 0
-200 -201 0
-200 -202 0
-200 -203 0
-200 -204 0
-201 -202 0
-201 -203 0
-201 -204 0
-202 -203 0
-202 -204 0
-203 -204 0
-199 193 163 0
-199 163 205 0
-199 193 205 0
-200 194 164 0
-200 164 206 0
-200 194 206 0
-201 195 165 0
-201 165 207 0
-201 195 207 0
-202 196 166 0
-202 166 208 0
-202 196 208 0
-203 197 167 0
-203 167 209 0
-203 197 209 0
-204 198 168 0
-204 168 210 0
-204 198 210 0
-199 -163 -193 -205 0
-200 -164 -194 -206 0
-201 -165 -195 -207 0
-202 -166 -196 -208 0
-203 -167 -197 -209 0
-204 -168 -198 -210 0
-205 -206 0
-205 -207 0
-205 -208 0
-205 -209 0
-205 -210 0
-206 -207 0
-206 -208 0
-206 -209 0
-206 -210 0
-207 -208 0
-207 -209 0
-207 -210 0
-208 -209 0
-208 -210 0
-209 -210 0
-205 199 169 0
-205 169 211 0
-205 199 211 0
-206 200 170 0
-206 170 212 0
-206 200 212 0
-207 201 171 0
-207 171 213 0
-207 201 213 0
-208 202 172 0
-208 172 214 0
-208 202 214 0
-209 203 173 0
-209 173 215 0
-209 203 215 0
-210 204 174 0
-210 174 216 0
-210 204 216 0
-205 -169 -199 -211 0
-206 -170 -200 -212 0
-207 -171 -201 -213 0
-208 -172 -202 -214 0
-209 -173 -203 -215 0
-210 -174 -204 -216 0
-211 -212 0
-211 -213 0
-211 -214 0
-211 -215 0
-211 -216 0
-212 -213 0
-212 -214 0
-212 -215 0
-212 -216 0
-213 -214 0
-213 -215 0
-213 -216 0
-214 -215 0
-214 -216 0
-215 -216 0
-211 175 0
-211 205 0
-212 176 0
-212 206 0
-213 177 0
-213 207 0
-214 178 0
-214 208 0
-215 179 0
-215 209 0
-216 180 0
-216 210 0
13 49 85 121 157 193 0
19 55 91 163 199 0
97 133 169 205 0
8 80 116 188 0
14 50 86 122 158 194 0
20 56 92 164 200 0
10 82 118 190 0
16 52 88 124 160 196 0
22 58 94 166 202 0
100 136 172 208 0
11 83 119 191 0
17 53 89 125 161 197 0
18 54 90 126 162 198 0
24 60 96 168 204 0
102 138 174 210 0